\ This file has been generated by DOcplex
\ ENCODING=ISO-8859-1
\Problem name: Track

Minimize
 obj: - 168 x_0_2 - 168 x_0_3 - 168 x_0_4 - 168 x_0_5 - 168 x_0_6 - 168 x_0_7
      - 168 x_1_2 - 168 x_1_3 - 168 x_1_4 - 168 x_1_5 - 168 x_1_6 - 168 x_1_7
      - 168 x_2_4 - 168 x_2_5 - 168 x_2_6 - 168 x_2_7 - 112 x_2_8 - 112 x_2_9
      - 168 x_3_4 - 168 x_3_5 - 168 x_3_6 - 168 x_3_7 - 112 x_3_8 - 112 x_3_9
      - 168 x_4_6 - 168 x_4_7 - 112 x_4_8 - 112 x_4_9 - 56 x_4_10 - 56 x_4_11
      - 168 x_5_6 - 168 x_5_7 - 112 x_5_8 - 112 x_5_9 - 56 x_5_10 - 56 x_5_11
      - 112 x_6_8 - 112 x_6_9 - 56 x_6_10 - 56 x_6_11 - 112 x_7_8 - 112 x_7_9
      - 56 x_7_10 - 56 x_7_11 - 56 x_8_10 - 56 x_8_11 - 56 x_9_10 - 56 x_9_11 +
      [ 72 x_0_2^2 + 144 x_0_2*x_0_3 + 144 x_0_2*x_0_4 + 144 x_0_2*x_0_5
      + 144 x_0_2*x_0_6 + 144 x_0_2*x_0_7 + 144 x_0_2*x_1_2 + 144 x_0_2*x_1_3
      + 144 x_0_2*x_1_4 + 144 x_0_2*x_1_5 + 144 x_0_2*x_1_6 + 144 x_0_2*x_1_7
      + 143.990924088799 x_0_2*x_2_4 + 143.995212565838 x_0_2*x_2_5
      + 143.994453592901 x_0_2*x_2_6 + 143.995670364840 x_0_2*x_2_7
      + 95.996006612585 x_0_2*x_2_8 + 95.996546264998 x_0_2*x_2_9
      + 144 x_0_2*x_3_4 + 144 x_0_2*x_3_5 + 144 x_0_2*x_3_6 + 144 x_0_2*x_3_7
      + 96 x_0_2*x_3_8 + 96 x_0_2*x_3_9 + 144 x_0_2*x_4_6 + 144 x_0_2*x_4_7
      + 96 x_0_2*x_4_8 + 96 x_0_2*x_4_9 + 48 x_0_2*x_4_10 + 48 x_0_2*x_4_11
      + 144 x_0_2*x_5_6 + 144 x_0_2*x_5_7 + 96 x_0_2*x_5_8 + 96 x_0_2*x_5_9
      + 48 x_0_2*x_5_10 + 48 x_0_2*x_5_11 + 96 x_0_2*x_6_8 + 96 x_0_2*x_6_9
      + 48 x_0_2*x_6_10 + 48 x_0_2*x_6_11 + 96 x_0_2*x_7_8 + 96 x_0_2*x_7_9
      + 48 x_0_2*x_7_10 + 48 x_0_2*x_7_11 + 48 x_0_2*x_8_10 + 48 x_0_2*x_8_11
      + 48 x_0_2*x_9_10 + 48 x_0_2*x_9_11 + 72 x_0_3^2 + 144 x_0_3*x_0_4
      + 144 x_0_3*x_0_5 + 144 x_0_3*x_0_6 + 144 x_0_3*x_0_7 + 144 x_0_3*x_1_2
      + 144 x_0_3*x_1_3 + 144 x_0_3*x_1_4 + 144 x_0_3*x_1_5 + 144 x_0_3*x_1_6
      + 144 x_0_3*x_1_7 + 144 x_0_3*x_2_4 + 144 x_0_3*x_2_5 + 144 x_0_3*x_2_6
      + 144 x_0_3*x_2_7 + 96 x_0_3*x_2_8 + 96 x_0_3*x_2_9
      + 144.000150128269 x_0_3*x_3_4 + 143.994320101717 x_0_3*x_3_5
      + 143.998629029181 x_0_3*x_3_6 + 143.996283548106 x_0_3*x_3_7
      + 95.998527979850 x_0_3*x_3_8 + 95.997238283971 x_0_3*x_3_9
      + 144 x_0_3*x_4_6 + 144 x_0_3*x_4_7 + 96 x_0_3*x_4_8 + 96 x_0_3*x_4_9
      + 48 x_0_3*x_4_10 + 48 x_0_3*x_4_11 + 144 x_0_3*x_5_6 + 144 x_0_3*x_5_7
      + 96 x_0_3*x_5_8 + 96 x_0_3*x_5_9 + 48 x_0_3*x_5_10 + 48 x_0_3*x_5_11
      + 96 x_0_3*x_6_8 + 96 x_0_3*x_6_9 + 48 x_0_3*x_6_10 + 48 x_0_3*x_6_11
      + 96 x_0_3*x_7_8 + 96 x_0_3*x_7_9 + 48 x_0_3*x_7_10 + 48 x_0_3*x_7_11
      + 48 x_0_3*x_8_10 + 48 x_0_3*x_8_11 + 48 x_0_3*x_9_10 + 48 x_0_3*x_9_11
      + 72 x_0_4^2 + 144 x_0_4*x_0_5 + 144 x_0_4*x_0_6 + 144 x_0_4*x_0_7
      + 144 x_0_4*x_1_2 + 144 x_0_4*x_1_3 + 144 x_0_4*x_1_4 + 144 x_0_4*x_1_5
      + 144 x_0_4*x_1_6 + 144 x_0_4*x_1_7 + 144 x_0_4*x_2_4 + 144 x_0_4*x_2_5
      + 144 x_0_4*x_2_6 + 144 x_0_4*x_2_7 + 96 x_0_4*x_2_8 + 96 x_0_4*x_2_9
      + 144 x_0_4*x_3_4 + 144 x_0_4*x_3_5 + 144 x_0_4*x_3_6 + 144 x_0_4*x_3_7
      + 96 x_0_4*x_3_8 + 96 x_0_4*x_3_9 + 143.994453595865 x_0_4*x_4_6
      + 143.996912129454 x_0_4*x_4_7 + 95.996006615555 x_0_4*x_4_8
      + 95.996907096838 x_0_4*x_4_9 + 47.997147592058 x_0_4*x_4_10
      + 47.997504054623 x_0_4*x_4_11 + 144 x_0_4*x_5_6 + 144 x_0_4*x_5_7
      + 96 x_0_4*x_5_8 + 96 x_0_4*x_5_9 + 48 x_0_4*x_5_10 + 48 x_0_4*x_5_11
      + 96 x_0_4*x_6_8 + 96 x_0_4*x_6_9 + 48 x_0_4*x_6_10 + 48 x_0_4*x_6_11
      + 96 x_0_4*x_7_8 + 96 x_0_4*x_7_9 + 48 x_0_4*x_7_10 + 48 x_0_4*x_7_11
      + 48 x_0_4*x_8_10 + 48 x_0_4*x_8_11 + 48 x_0_4*x_9_10 + 48 x_0_4*x_9_11
      + 72 x_0_5^2 + 144 x_0_5*x_0_6 + 144 x_0_5*x_0_7 + 144 x_0_5*x_1_2
      + 144 x_0_5*x_1_3 + 144 x_0_5*x_1_4 + 144 x_0_5*x_1_5 + 144 x_0_5*x_1_6
      + 144 x_0_5*x_1_7 + 144 x_0_5*x_2_4 + 144 x_0_5*x_2_5 + 144 x_0_5*x_2_6
      + 144 x_0_5*x_2_7 + 96 x_0_5*x_2_8 + 96 x_0_5*x_2_9 + 144 x_0_5*x_3_4
      + 144 x_0_5*x_3_5 + 144 x_0_5*x_3_6 + 144 x_0_5*x_3_7 + 96 x_0_5*x_3_8
      + 96 x_0_5*x_3_9 + 144 x_0_5*x_4_6 + 144 x_0_5*x_4_7 + 96 x_0_5*x_4_8
      + 96 x_0_5*x_4_9 + 48 x_0_5*x_4_10 + 48 x_0_5*x_4_11
      + 143.998695008571 x_0_5*x_5_6 + 143.995265890573 x_0_5*x_5_7
      + 95.998022349702 x_0_5*x_5_8 + 95.996520037852 x_0_5*x_5_9
      + 47.998178585702 x_0_5*x_5_10 + 47.997475446929 x_0_5*x_5_11
      + 96 x_0_5*x_6_8 + 96 x_0_5*x_6_9 + 48 x_0_5*x_6_10 + 48 x_0_5*x_6_11
      + 96 x_0_5*x_7_8 + 96 x_0_5*x_7_9 + 48 x_0_5*x_7_10 + 48 x_0_5*x_7_11
      + 48 x_0_5*x_8_10 + 48 x_0_5*x_8_11 + 48 x_0_5*x_9_10 + 48 x_0_5*x_9_11
      + 72 x_0_6^2 + 144 x_0_6*x_0_7 + 144 x_0_6*x_1_2 + 144 x_0_6*x_1_3
      + 144 x_0_6*x_1_4 + 144 x_0_6*x_1_5 + 144 x_0_6*x_1_6 + 144 x_0_6*x_1_7
      + 144 x_0_6*x_2_4 + 144 x_0_6*x_2_5 + 144 x_0_6*x_2_6 + 144 x_0_6*x_2_7
      + 96 x_0_6*x_2_8 + 96 x_0_6*x_2_9 + 144 x_0_6*x_3_4 + 144 x_0_6*x_3_5
      + 144 x_0_6*x_3_6 + 144 x_0_6*x_3_7 + 96 x_0_6*x_3_8 + 96 x_0_6*x_3_9
      + 144 x_0_6*x_4_6 + 144 x_0_6*x_4_7 + 96 x_0_6*x_4_8 + 96 x_0_6*x_4_9
      + 48 x_0_6*x_4_10 + 48 x_0_6*x_4_11 + 144 x_0_6*x_5_6 + 144 x_0_6*x_5_7
      + 96 x_0_6*x_5_8 + 96 x_0_6*x_5_9 + 48 x_0_6*x_5_10 + 48 x_0_6*x_5_11
      + 95.996006615129 x_0_6*x_6_8 + 95.997940138702 x_0_6*x_6_9
      + 47.997147592027 x_0_6*x_6_10 + 47.997741075484 x_0_6*x_6_11
      - 0.002218526764 x_0_6*x_6_12 - 0.001939032272 x_0_6*x_6_13
      + 96 x_0_6*x_7_8 + 96 x_0_6*x_7_9 + 48 x_0_6*x_7_10 + 48 x_0_6*x_7_11
      + 48 x_0_6*x_8_10 + 48 x_0_6*x_8_11 + 48 x_0_6*x_9_10 + 48 x_0_6*x_9_11
      + 72 x_0_7^2 + 144 x_0_7*x_1_2 + 144 x_0_7*x_1_3 + 144 x_0_7*x_1_4
      + 144 x_0_7*x_1_5 + 144 x_0_7*x_1_6 + 144 x_0_7*x_1_7 + 144 x_0_7*x_2_4
      + 144 x_0_7*x_2_5 + 144 x_0_7*x_2_6 + 144 x_0_7*x_2_7 + 96 x_0_7*x_2_8
      + 96 x_0_7*x_2_9 + 144 x_0_7*x_3_4 + 144 x_0_7*x_3_5 + 144 x_0_7*x_3_6
      + 144 x_0_7*x_3_7 + 96 x_0_7*x_3_8 + 96 x_0_7*x_3_9 + 144 x_0_7*x_4_6
      + 144 x_0_7*x_4_7 + 96 x_0_7*x_4_8 + 96 x_0_7*x_4_9 + 48 x_0_7*x_4_10
      + 48 x_0_7*x_4_11 + 144 x_0_7*x_5_6 + 144 x_0_7*x_5_7 + 96 x_0_7*x_5_8
      + 96 x_0_7*x_5_9 + 48 x_0_7*x_5_10 + 48 x_0_7*x_5_11 + 96 x_0_7*x_6_8
      + 96 x_0_7*x_6_9 + 48 x_0_7*x_6_10 + 48 x_0_7*x_6_11
      + 95.998814091457 x_0_7*x_7_8 + 95.996305403444 x_0_7*x_7_9
      + 47.998222474962 x_0_7*x_7_10 + 47.997329339030 x_0_7*x_7_11
      - 0.001627229207 x_0_7*x_7_12 - 0.002091163779 x_0_7*x_7_13
      + 48 x_0_7*x_8_10 + 48 x_0_7*x_8_11 + 48 x_0_7*x_9_10 + 48 x_0_7*x_9_11
      + 72 x_1_2^2 + 144 x_1_2*x_1_3 + 144 x_1_2*x_1_4 + 144 x_1_2*x_1_5
      + 144 x_1_2*x_1_6 + 144 x_1_2*x_1_7 + 143.994359204692 x_1_2*x_2_4
      + 144.000155447820 x_1_2*x_2_5 + 143.996322091888 x_1_2*x_2_6
      + 143.998698082360 x_1_2*x_2_7 + 95.997271157293 x_1_2*x_2_8
      + 95.998593576555 x_1_2*x_2_9 + 144 x_1_2*x_3_4 + 144 x_1_2*x_3_5
      + 144 x_1_2*x_3_6 + 144 x_1_2*x_3_7 + 96 x_1_2*x_3_8 + 96 x_1_2*x_3_9
      + 144 x_1_2*x_4_6 + 144 x_1_2*x_4_7 + 96 x_1_2*x_4_8 + 96 x_1_2*x_4_9
      + 48 x_1_2*x_4_10 + 48 x_1_2*x_4_11 + 144 x_1_2*x_5_6 + 144 x_1_2*x_5_7
      + 96 x_1_2*x_5_8 + 96 x_1_2*x_5_9 + 48 x_1_2*x_5_10 + 48 x_1_2*x_5_11
      + 96 x_1_2*x_6_8 + 96 x_1_2*x_6_9 + 48 x_1_2*x_6_10 + 48 x_1_2*x_6_11
      + 96 x_1_2*x_7_8 + 96 x_1_2*x_7_9 + 48 x_1_2*x_7_10 + 48 x_1_2*x_7_11
      + 48 x_1_2*x_8_10 + 48 x_1_2*x_8_11 + 48 x_1_2*x_9_10 + 48 x_1_2*x_9_11
      + 72 x_1_3^2 + 144 x_1_3*x_1_4 + 144 x_1_3*x_1_5 + 144 x_1_3*x_1_6
      + 144 x_1_3*x_1_7 + 144 x_1_3*x_2_4 + 144 x_1_3*x_2_5 + 144 x_1_3*x_2_6
      + 144 x_1_3*x_2_7 + 96 x_1_3*x_2_8 + 96 x_1_3*x_2_9
      + 143.995274001284 x_1_3*x_3_4 + 143.990955873675 x_1_3*x_3_5
      + 143.995637884166 x_1_3*x_3_6 + 143.994473079378 x_1_3*x_3_7
      + 95.996515618682 x_1_3*x_3_8 + 95.996020628045 x_1_3*x_3_9
      + 144 x_1_3*x_4_6 + 144 x_1_3*x_4_7 + 96 x_1_3*x_4_8 + 96 x_1_3*x_4_9
      + 48 x_1_3*x_4_10 + 48 x_1_3*x_4_11 + 144 x_1_3*x_5_6 + 144 x_1_3*x_5_7
      + 96 x_1_3*x_5_8 + 96 x_1_3*x_5_9 + 48 x_1_3*x_5_10 + 48 x_1_3*x_5_11
      + 96 x_1_3*x_6_8 + 96 x_1_3*x_6_9 + 48 x_1_3*x_6_10 + 48 x_1_3*x_6_11
      + 96 x_1_3*x_7_8 + 96 x_1_3*x_7_9 + 48 x_1_3*x_7_10 + 48 x_1_3*x_7_11
      + 48 x_1_3*x_8_10 + 48 x_1_3*x_8_11 + 48 x_1_3*x_9_10 + 48 x_1_3*x_9_11
      + 72 x_1_4^2 + 144 x_1_4*x_1_5 + 144 x_1_4*x_1_6 + 144 x_1_4*x_1_7
      + 144 x_1_4*x_2_4 + 144 x_1_4*x_2_5 + 144 x_1_4*x_2_6 + 144 x_1_4*x_2_7
      + 96 x_1_4*x_2_8 + 96 x_1_4*x_2_9 + 144 x_1_4*x_3_4 + 144 x_1_4*x_3_5
      + 144 x_1_4*x_3_6 + 144 x_1_4*x_3_7 + 96 x_1_4*x_3_8 + 96 x_1_4*x_3_9
      + 143.995223701644 x_1_4*x_4_6 + 143.998639415790 x_1_4*x_4_7
      + 95.996497311217 x_1_4*x_4_8 + 95.998025150021 x_1_4*x_4_9
      + 47.997463686666 x_1_4*x_4_10 + 47.998193439682 x_1_4*x_4_11
      + 144 x_1_4*x_5_6 + 144 x_1_4*x_5_7 + 96 x_1_4*x_5_8 + 96 x_1_4*x_5_9
      + 48 x_1_4*x_5_10 + 48 x_1_4*x_5_11 + 96 x_1_4*x_6_8 + 96 x_1_4*x_6_9
      + 48 x_1_4*x_6_10 + 48 x_1_4*x_6_11 + 96 x_1_4*x_7_8 + 96 x_1_4*x_7_9
      + 48 x_1_4*x_7_10 + 48 x_1_4*x_7_11 + 48 x_1_4*x_8_10 + 48 x_1_4*x_8_11
      + 48 x_1_4*x_9_10 + 48 x_1_4*x_9_11 + 72 x_1_5^2 + 144 x_1_5*x_1_6
      + 144 x_1_5*x_1_7 + 144 x_1_5*x_2_4 + 144 x_1_5*x_2_5 + 144 x_1_5*x_2_6
      + 144 x_1_5*x_2_7 + 96 x_1_5*x_2_8 + 96 x_1_5*x_2_9 + 144 x_1_5*x_3_4
      + 144 x_1_5*x_3_5 + 144 x_1_5*x_3_6 + 144 x_1_5*x_3_7 + 96 x_1_5*x_3_8
      + 96 x_1_5*x_3_9 + 144 x_1_5*x_4_6 + 144 x_1_5*x_4_7 + 96 x_1_5*x_4_8
      + 96 x_1_5*x_4_9 + 48 x_1_5*x_4_10 + 48 x_1_5*x_4_11
      + 143.996965575826 x_1_5*x_5_6 + 143.994473075588 x_1_5*x_5_7
      + 95.996897286758 x_1_5*x_5_8 + 95.996020625247 x_1_5*x_5_9
      + 47.997487477890 x_1_5*x_5_10 + 47.997157596567 x_1_5*x_5_11
      + 96 x_1_5*x_6_8 + 96 x_1_5*x_6_9 + 48 x_1_5*x_6_10 + 48 x_1_5*x_6_11
      + 96 x_1_5*x_7_8 + 96 x_1_5*x_7_9 + 48 x_1_5*x_7_10 + 48 x_1_5*x_7_11
      + 48 x_1_5*x_8_10 + 48 x_1_5*x_8_11 + 48 x_1_5*x_9_10 + 48 x_1_5*x_9_11
      + 72 x_1_6^2 + 144 x_1_6*x_1_7 + 144 x_1_6*x_2_4 + 144 x_1_6*x_2_5
      + 144 x_1_6*x_2_6 + 144 x_1_6*x_2_7 + 96 x_1_6*x_2_8 + 96 x_1_6*x_2_9
      + 144 x_1_6*x_3_4 + 144 x_1_6*x_3_5 + 144 x_1_6*x_3_6 + 144 x_1_6*x_3_7
      + 96 x_1_6*x_3_8 + 96 x_1_6*x_3_9 + 144 x_1_6*x_4_6 + 144 x_1_6*x_4_7
      + 96 x_1_6*x_4_8 + 96 x_1_6*x_4_9 + 48 x_1_6*x_4_10 + 48 x_1_6*x_4_11
      + 144 x_1_6*x_5_6 + 144 x_1_6*x_5_7 + 96 x_1_6*x_5_8 + 96 x_1_6*x_5_9
      + 48 x_1_6*x_5_10 + 48 x_1_6*x_5_11 + 95.996268666685 x_1_6*x_6_8
      + 95.998747064599 x_1_6*x_6_9 + 47.997308447347 x_1_6*x_6_10
      + 47.998216864403 x_1_6*x_6_11 - 0.002105019209 x_1_6*x_6_12
      - 0.001622919029 x_1_6*x_6_13 + 96 x_1_6*x_7_8 + 96 x_1_6*x_7_9
      + 48 x_1_6*x_7_10 + 48 x_1_6*x_7_11 + 48 x_1_6*x_8_10 + 48 x_1_6*x_8_11
      + 48 x_1_6*x_9_10 + 48 x_1_6*x_9_11 + 72 x_1_7^2 + 144 x_1_7*x_2_4
      + 144 x_1_7*x_2_5 + 144 x_1_7*x_2_6 + 144 x_1_7*x_2_7 + 96 x_1_7*x_2_8
      + 96 x_1_7*x_2_9 + 144 x_1_7*x_3_4 + 144 x_1_7*x_3_5 + 144 x_1_7*x_3_6
      + 144 x_1_7*x_3_7 + 96 x_1_7*x_3_8 + 96 x_1_7*x_3_9 + 144 x_1_7*x_4_6
      + 144 x_1_7*x_4_7 + 96 x_1_7*x_4_8 + 96 x_1_7*x_4_9 + 48 x_1_7*x_4_10
      + 48 x_1_7*x_4_11 + 144 x_1_7*x_5_6 + 144 x_1_7*x_5_7 + 96 x_1_7*x_5_8
      + 96 x_1_7*x_5_9 + 48 x_1_7*x_5_10 + 48 x_1_7*x_5_11 + 96 x_1_7*x_6_8
      + 96 x_1_7*x_6_9 + 48 x_1_7*x_6_10 + 48 x_1_7*x_6_11
      + 95.997999951058 x_1_7*x_7_8 + 95.996020625538 x_1_7*x_7_9
      + 47.997737412308 x_1_7*x_7_10 + 47.997157596515 x_1_7*x_7_11
      - 0.001948944997 x_1_7*x_7_12 - 0.002210738724 x_1_7*x_7_13
      + 48 x_1_7*x_8_10 + 48 x_1_7*x_8_11 + 48 x_1_7*x_9_10 + 48 x_1_7*x_9_11
      + 72 x_2_4^2 + 144 x_2_4*x_2_5 + 144 x_2_4*x_2_6 + 144 x_2_4*x_2_7
      + 96 x_2_4*x_2_8 + 96 x_2_4*x_2_9 + 144 x_2_4*x_3_4 + 144 x_2_4*x_3_5
      + 144 x_2_4*x_3_6 + 144 x_2_4*x_3_7 + 96 x_2_4*x_3_8 + 96 x_2_4*x_3_9
      + 143.992320332511 x_2_4*x_4_6 + 143.995950764713 x_2_4*x_4_7
      + 95.995008264003 x_2_4*x_4_8 + 95.996206604304 x_2_4*x_4_9
      + 47.996672189475 x_2_4*x_4_10 + 47.997108834395 x_2_4*x_4_11
      + 144 x_2_4*x_5_6 + 144 x_2_4*x_5_7 + 96 x_2_4*x_5_8 + 96 x_2_4*x_5_9
      + 48 x_2_4*x_5_10 + 48 x_2_4*x_5_11 + 96 x_2_4*x_6_8 + 96 x_2_4*x_6_9
      + 48 x_2_4*x_6_10 + 48 x_2_4*x_6_11 + 96 x_2_4*x_7_8 + 96 x_2_4*x_7_9
      + 48 x_2_4*x_7_10 + 48 x_2_4*x_7_11 + 48 x_2_4*x_8_10 + 48 x_2_4*x_8_11
      + 48 x_2_4*x_9_10 + 48 x_2_4*x_9_11 + 72 x_2_5^2 + 144 x_2_5*x_2_6
      + 144 x_2_5*x_2_7 + 96 x_2_5*x_2_8 + 96 x_2_5*x_2_9 + 144 x_2_5*x_3_4
      + 144 x_2_5*x_3_5 + 144 x_2_5*x_3_6 + 144 x_2_5*x_3_7 + 96 x_2_5*x_3_8
      + 96 x_2_5*x_3_9 + 144 x_2_5*x_4_6 + 144 x_2_5*x_4_7 + 96 x_2_5*x_4_8
      + 96 x_2_5*x_4_9 + 48 x_2_5*x_4_10 + 48 x_2_5*x_4_11
      + 144.000068557327 x_2_5*x_5_6 + 143.995118245333 x_2_5*x_5_7
      + 95.998848202054 x_2_5*x_5_8 + 95.996631421879 x_2_5*x_5_9
      + 47.998717450675 x_2_5*x_5_10 + 47.997665242915 x_2_5*x_5_11
      + 96 x_2_5*x_6_8 + 96 x_2_5*x_6_9 + 48 x_2_5*x_6_10 + 48 x_2_5*x_6_11
      + 96 x_2_5*x_7_8 + 96 x_2_5*x_7_9 + 48 x_2_5*x_7_10 + 48 x_2_5*x_7_11
      + 48 x_2_5*x_8_10 + 48 x_2_5*x_8_11 + 48 x_2_5*x_9_10 + 48 x_2_5*x_9_11
      + 72 x_2_6^2 + 144 x_2_6*x_2_7 + 96 x_2_6*x_2_8 + 96 x_2_6*x_2_9
      + 144 x_2_6*x_3_4 + 144 x_2_6*x_3_5 + 144 x_2_6*x_3_6 + 144 x_2_6*x_3_7
      + 96 x_2_6*x_3_8 + 96 x_2_6*x_3_9 + 144 x_2_6*x_4_6 + 144 x_2_6*x_4_7
      + 96 x_2_6*x_4_8 + 96 x_2_6*x_4_9 + 48 x_2_6*x_4_10 + 48 x_2_6*x_4_11
      + 144 x_2_6*x_5_6 + 144 x_2_6*x_5_7 + 96 x_2_6*x_5_8 + 96 x_2_6*x_5_9
      + 48 x_2_6*x_5_10 + 48 x_2_6*x_5_11 + 95.995008262619 x_2_6*x_6_8
      + 95.997508919790 x_2_6*x_6_9 + 47.996672188547 x_2_6*x_6_10
      + 47.997392266201 x_2_6*x_6_11 - 0.002495843006 x_2_6*x_6_12
      - 0.002170531984 x_2_6*x_6_13 + 96 x_2_6*x_7_8 + 96 x_2_6*x_7_9
      + 48 x_2_6*x_7_10 + 48 x_2_6*x_7_11 + 48 x_2_6*x_8_10 + 48 x_2_6*x_8_11
      + 48 x_2_6*x_9_10 + 48 x_2_6*x_9_11 + 72 x_2_7^2 + 96 x_2_7*x_2_8
      + 96 x_2_7*x_2_9 + 144 x_2_7*x_3_4 + 144 x_2_7*x_3_5 + 144 x_2_7*x_3_6
      + 144 x_2_7*x_3_7 + 96 x_2_7*x_3_8 + 96 x_2_7*x_3_9 + 144 x_2_7*x_4_6
      + 144 x_2_7*x_4_7 + 96 x_2_7*x_4_8 + 96 x_2_7*x_4_9 + 48 x_2_7*x_4_10
      + 48 x_2_7*x_4_11 + 144 x_2_7*x_5_6 + 144 x_2_7*x_5_7 + 96 x_2_7*x_5_8
      + 96 x_2_7*x_5_9 + 48 x_2_7*x_5_10 + 48 x_2_7*x_5_11 + 96 x_2_7*x_6_8
      + 96 x_2_7*x_6_9 + 48 x_2_7*x_6_10 + 48 x_2_7*x_6_11
      + 95.999118437478 x_2_7*x_7_8 + 95.995744914007 x_2_7*x_7_9
      + 47.998301088673 x_2_7*x_7_10 + 47.997089375144 x_2_7*x_7_11
      - 0.001580578033 x_2_7*x_7_12 - 0.002211861265 x_2_7*x_7_13
      + 48 x_2_7*x_8_10 + 48 x_2_7*x_8_11 + 48 x_2_7*x_9_10 + 48 x_2_7*x_9_11
      + 32 x_2_8^2 + 64 x_2_8*x_2_9 + 96 x_2_8*x_3_4 + 96 x_2_8*x_3_5
      + 96 x_2_8*x_3_6 + 96 x_2_8*x_3_7 + 64 x_2_8*x_3_8 + 64 x_2_8*x_3_9
      + 96 x_2_8*x_4_6 + 96 x_2_8*x_4_7 + 64 x_2_8*x_4_8 + 64 x_2_8*x_4_9
      + 32 x_2_8*x_4_10 + 32 x_2_8*x_4_11 + 96 x_2_8*x_5_6 + 96 x_2_8*x_5_7
      + 64 x_2_8*x_5_8 + 64 x_2_8*x_5_9 + 32 x_2_8*x_5_10 + 32 x_2_8*x_5_11
      + 64 x_2_8*x_6_8 + 64 x_2_8*x_6_9 + 32 x_2_8*x_6_10 + 32 x_2_8*x_6_11
      + 64 x_2_8*x_7_8 + 64 x_2_8*x_7_9 + 32 x_2_8*x_7_10 + 32 x_2_8*x_7_11
      + 31.996672188112 x_2_8*x_8_10 + 31.998023130578 x_2_8*x_8_11
      - 0.002495842977 x_2_8*x_8_12 - 0.001988790152 x_2_8*x_8_13
      + 32 x_2_8*x_9_10 + 32 x_2_8*x_9_11 + 32 x_2_9^2 + 96 x_2_9*x_3_4
      + 96 x_2_9*x_3_5 + 96 x_2_9*x_3_6 + 96 x_2_9*x_3_7 + 64 x_2_9*x_3_8
      + 64 x_2_9*x_3_9 + 96 x_2_9*x_4_6 + 96 x_2_9*x_4_7 + 64 x_2_9*x_4_8
      + 64 x_2_9*x_4_9 + 32 x_2_9*x_4_10 + 32 x_2_9*x_4_11 + 96 x_2_9*x_5_6
      + 96 x_2_9*x_5_7 + 64 x_2_9*x_5_8 + 64 x_2_9*x_5_9 + 32 x_2_9*x_5_10
      + 32 x_2_9*x_5_11 + 64 x_2_9*x_6_8 + 64 x_2_9*x_6_9 + 32 x_2_9*x_6_10
      + 32 x_2_9*x_6_11 + 64 x_2_9*x_7_8 + 64 x_2_9*x_7_9 + 32 x_2_9*x_7_10
      + 32 x_2_9*x_7_11 + 32 x_2_9*x_8_10 + 32 x_2_9*x_8_11
      + 31.998750054617 x_2_9*x_9_10 + 31.996930242430 x_2_9*x_9_11
      - 0.001550634677 x_2_9*x_9_12 - 0.002326465414 x_2_9*x_9_13 + 72 x_3_4^2
      + 144 x_3_4*x_3_5 + 144 x_3_4*x_3_6 + 144 x_3_4*x_3_7 + 96 x_3_4*x_3_8
      + 96 x_3_4*x_3_9 + 143.995144631307 x_3_4*x_4_6
      + 144.000068199287 x_3_4*x_4_7 + 95.996659635758 x_3_4*x_4_8
      + 95.998900764307 x_3_4*x_4_9 + 47.997689791774 x_3_4*x_4_10
      + 47.998769873515 x_3_4*x_4_11 + 144 x_3_4*x_5_6 + 144 x_3_4*x_5_7
      + 96 x_3_4*x_5_8 + 96 x_3_4*x_5_9 + 48 x_3_4*x_5_10 + 48 x_3_4*x_5_11
      + 96 x_3_4*x_6_8 + 96 x_3_4*x_6_9 + 48 x_3_4*x_6_10 + 48 x_3_4*x_6_11
      + 96 x_3_4*x_7_8 + 96 x_3_4*x_7_9 + 48 x_3_4*x_7_10 + 48 x_3_4*x_7_11
      + 48 x_3_4*x_8_10 + 48 x_3_4*x_8_11 + 48 x_3_4*x_9_10 + 48 x_3_4*x_9_11
      + 72 x_3_5^2 + 144 x_3_5*x_3_6 + 144 x_3_5*x_3_7 + 96 x_3_5*x_3_8
      + 96 x_3_5*x_3_9 + 144 x_3_5*x_4_6 + 144 x_3_5*x_4_7 + 96 x_3_5*x_4_8
      + 96 x_3_5*x_4_9 + 48 x_3_5*x_4_10 + 48 x_3_5*x_4_11
      + 143.996006888636 x_3_5*x_5_6 + 143.992347420348 x_3_5*x_5_7
      + 95.996183877175 x_3_5*x_5_8 + 95.995025819016 x_3_5*x_5_9
      + 47.997084364615 x_3_5*x_5_10 + 47.996683879552 x_3_5*x_5_11
      + 96 x_3_5*x_6_8 + 96 x_3_5*x_6_9 + 48 x_3_5*x_6_10 + 48 x_3_5*x_6_11
      + 96 x_3_5*x_7_8 + 96 x_3_5*x_7_9 + 48 x_3_5*x_7_10 + 48 x_3_5*x_7_11
      + 48 x_3_5*x_8_10 + 48 x_3_5*x_8_11 + 48 x_3_5*x_9_10 + 48 x_3_5*x_9_11
      + 72 x_3_6^2 + 144 x_3_6*x_3_7 + 96 x_3_6*x_3_8 + 96 x_3_6*x_3_9
      + 144 x_3_6*x_4_6 + 144 x_3_6*x_4_7 + 96 x_3_6*x_4_8 + 96 x_3_6*x_4_9
      + 48 x_3_6*x_4_10 + 48 x_3_6*x_4_11 + 144 x_3_6*x_5_6 + 144 x_3_6*x_5_7
      + 96 x_3_6*x_5_8 + 96 x_3_6*x_5_9 + 48 x_3_6*x_5_10 + 48 x_3_6*x_5_11
      + 95.995702833165 x_3_6*x_6_8 + 95.999052797426 x_3_6*x_6_9
      + 47.997069851258 x_3_6*x_6_10 + 47.998303416299 x_3_6*x_6_11
      - 0.002223047781 x_3_6*x_6_12 - 0.001568990860 x_3_6*x_6_13
      + 96 x_3_6*x_7_8 + 96 x_3_6*x_7_9 + 48 x_3_6*x_7_10 + 48 x_3_6*x_7_11
      + 48 x_3_6*x_8_10 + 48 x_3_6*x_8_11 + 48 x_3_6*x_9_10 + 48 x_3_6*x_9_11
      + 72 x_3_7^2 + 96 x_3_7*x_3_8 + 96 x_3_7*x_3_9 + 144 x_3_7*x_4_6
      + 144 x_3_7*x_4_7 + 96 x_3_7*x_4_8 + 96 x_3_7*x_4_9 + 48 x_3_7*x_4_10
      + 48 x_3_7*x_4_11 + 144 x_3_7*x_5_6 + 144 x_3_7*x_5_7 + 96 x_3_7*x_5_8
      + 96 x_3_7*x_5_9 + 48 x_3_7*x_5_10 + 48 x_3_7*x_5_11 + 96 x_3_7*x_6_8
      + 96 x_3_7*x_6_9 + 48 x_3_7*x_6_10 + 48 x_3_7*x_6_11
      + 95.997577060185 x_3_7*x_7_8 + 95.995025820136 x_3_7*x_7_9
      + 47.997383779055 x_3_7*x_7_10 + 47.996683880222 x_3_7*x_7_11
      - 0.002184296163 x_3_7*x_7_12 - 0.002487069122 x_3_7*x_7_13
      + 48 x_3_7*x_8_10 + 48 x_3_7*x_8_11 + 48 x_3_7*x_9_10 + 48 x_3_7*x_9_11
      + 32 x_3_8^2 + 64 x_3_8*x_3_9 + 96 x_3_8*x_4_6 + 96 x_3_8*x_4_7
      + 64 x_3_8*x_4_8 + 64 x_3_8*x_4_9 + 32 x_3_8*x_4_10 + 32 x_3_8*x_4_11
      + 96 x_3_8*x_5_6 + 96 x_3_8*x_5_7 + 64 x_3_8*x_5_8 + 64 x_3_8*x_5_9
      + 32 x_3_8*x_5_10 + 32 x_3_8*x_5_11 + 64 x_3_8*x_6_8 + 64 x_3_8*x_6_9
      + 32 x_3_8*x_6_10 + 32 x_3_8*x_6_11 + 64 x_3_8*x_7_8 + 64 x_3_8*x_7_9
      + 32 x_3_8*x_7_10 + 32 x_3_8*x_7_11 + 31.996901042292 x_3_8*x_8_10
      + 31.998708814420 x_3_8*x_8_11 - 0.002344447025 x_3_8*x_8_12
      - 0.001554163715 x_3_8*x_8_13 + 32 x_3_8*x_9_10 + 32 x_3_8*x_9_11
      + 32 x_3_9^2 + 96 x_3_9*x_4_6 + 96 x_3_9*x_4_7 + 64 x_3_9*x_4_8
      + 64 x_3_9*x_4_9 + 32 x_3_9*x_4_10 + 32 x_3_9*x_4_11 + 96 x_3_9*x_5_6
      + 96 x_3_9*x_5_7 + 64 x_3_9*x_5_8 + 64 x_3_9*x_5_9 + 32 x_3_9*x_5_10
      + 32 x_3_9*x_5_11 + 64 x_3_9*x_6_8 + 64 x_3_9*x_6_9 + 32 x_3_9*x_6_10
      + 32 x_3_9*x_6_11 + 64 x_3_9*x_7_8 + 64 x_3_9*x_7_9 + 32 x_3_9*x_7_10
      + 32 x_3_9*x_7_11 + 32 x_3_9*x_8_10 + 32 x_3_9*x_8_11
      + 31.998055862011 x_3_9*x_9_10 + 31.996683879524 x_3_9*x_9_11
      - 0.001993162859 x_3_9*x_9_12 - 0.002487069520 x_3_9*x_9_13 + 72 x_4_6^2
      + 144 x_4_6*x_4_7 + 96 x_4_6*x_4_8 + 96 x_4_6*x_4_9 + 48 x_4_6*x_4_10
      + 48 x_4_6*x_4_11 + 144 x_4_6*x_5_6 + 144 x_4_6*x_5_7 + 96 x_4_6*x_5_8
      + 96 x_4_6*x_5_9 + 48 x_4_6*x_5_10 + 48 x_4_6*x_5_11
      + 95.992868968076 x_4_6*x_6_8 + 95.996673721480 x_4_6*x_6_9
      + 47.995840243948 x_4_6*x_6_10 + 47.996799374098 x_4_6*x_6_11
      - 0.002936280964 x_4_6*x_6_12 - 0.002533388940 x_4_6*x_6_13
      + 96 x_4_6*x_7_8 + 96 x_4_6*x_7_9 + 48 x_4_6*x_7_10 + 48 x_4_6*x_7_11
      + 48 x_4_6*x_8_10 + 48 x_4_6*x_8_11 + 48 x_4_6*x_9_10 + 48 x_4_6*x_9_11
      + 72 x_4_7^2 + 96 x_4_7*x_4_8 + 96 x_4_7*x_4_9 + 48 x_4_7*x_4_10
      + 48 x_4_7*x_4_11 + 144 x_4_7*x_5_6 + 144 x_4_7*x_5_7 + 96 x_4_7*x_5_8
      + 96 x_4_7*x_5_9 + 48 x_4_7*x_5_10 + 48 x_4_7*x_5_11 + 96 x_4_7*x_6_8
      + 96 x_4_7*x_6_9 + 48 x_4_7*x_6_10 + 48 x_4_7*x_6_11
      + 96.000427362376 x_4_7*x_7_8 + 95.995540176329 x_4_7*x_7_9
      + 47.998996752034 x_4_7*x_7_10 + 47.997189945129 x_4_7*x_7_11
      - 0.001098520554 x_4_7*x_7_12 - 0.002051433107 x_4_7*x_7_13
      + 48 x_4_7*x_8_10 + 48 x_4_7*x_8_11 + 48 x_4_7*x_9_10 + 48 x_4_7*x_9_11
      + 32 x_4_8^2 + 64 x_4_8*x_4_9 + 32 x_4_8*x_4_10 + 32 x_4_8*x_4_11
      + 96 x_4_8*x_5_6 + 96 x_4_8*x_5_7 + 64 x_4_8*x_5_8 + 64 x_4_8*x_5_9
      + 32 x_4_8*x_5_10 + 32 x_4_8*x_5_11 + 64 x_4_8*x_6_8 + 64 x_4_8*x_6_9
      + 32 x_4_8*x_6_10 + 32 x_4_8*x_6_11 + 64 x_4_8*x_7_8 + 64 x_4_8*x_7_9
      + 32 x_4_8*x_7_10 + 32 x_4_8*x_7_11 + 31.995840244205 x_4_8*x_8_10
      + 31.997599344139 x_4_8*x_8_11 - 0.002936280271 x_4_8*x_8_12
      - 0.002313819713 x_4_8*x_8_13 + 32 x_4_8*x_9_10 + 32 x_4_8*x_9_11
      + 32 x_4_9^2 + 32 x_4_9*x_4_10 + 32 x_4_9*x_4_11 + 96 x_4_9*x_5_6
      + 96 x_4_9*x_5_7 + 64 x_4_9*x_5_8 + 64 x_4_9*x_5_9 + 32 x_4_9*x_5_10
      + 32 x_4_9*x_5_11 + 64 x_4_9*x_6_8 + 64 x_4_9*x_6_9 + 32 x_4_9*x_6_10
      + 32 x_4_9*x_6_11 + 64 x_4_9*x_7_8 + 64 x_4_9*x_7_9 + 32 x_4_9*x_7_10
      + 32 x_4_9*x_7_11 + 32 x_4_9*x_8_10 + 32 x_4_9*x_8_11
      + 31.999005677416 x_4_9*x_9_10 + 31.996503961992 x_4_9*x_9_11
      - 0.001451590966 x_4_9*x_9_12 - 0.002525826550 x_4_9*x_9_13 + 8 x_4_10^2
      + 16 x_4_10*x_4_11 + 48 x_4_10*x_5_6 + 48 x_4_10*x_5_7 + 32 x_4_10*x_5_8
      + 32 x_4_10*x_5_9 + 16 x_4_10*x_5_10 + 16 x_4_10*x_5_11 + 32 x_4_10*x_6_8
      + 32 x_4_10*x_6_9 + 16 x_4_10*x_6_10 + 16 x_4_10*x_6_11 + 32 x_4_10*x_7_8
      + 32 x_4_10*x_7_9 + 16 x_4_10*x_7_10 + 16 x_4_10*x_7_11 + 16 x_4_10*x_8_10
      + 16 x_4_10*x_8_11 + 16 x_4_10*x_9_10 + 16 x_4_10*x_9_11
      - 0.002936280194 x_4_10*x_10_12 - 0.001568967234 x_4_10*x_10_13
      + 8 x_4_11^2 + 48 x_4_11*x_5_6 + 48 x_4_11*x_5_7 + 32 x_4_11*x_5_8
      + 32 x_4_11*x_5_9 + 16 x_4_11*x_5_10 + 16 x_4_11*x_5_11 + 32 x_4_11*x_6_8
      + 32 x_4_11*x_6_9 + 16 x_4_11*x_6_10 + 16 x_4_11*x_6_11 + 32 x_4_11*x_7_8
      + 32 x_4_11*x_7_9 + 16 x_4_11*x_7_10 + 16 x_4_11*x_7_11 + 16 x_4_11*x_8_10
      + 16 x_4_11*x_8_11 + 16 x_4_11*x_9_10 + 16 x_4_11*x_9_11
      - 0.000919695520 x_4_11*x_11_12 - 0.002710778355 x_4_11*x_11_13
      + 72 x_5_6^2 + 144 x_5_6*x_5_7 + 96 x_5_6*x_5_8 + 96 x_5_6*x_5_9
      + 48 x_5_6*x_5_10 + 48 x_5_6*x_5_11 + 95.995559579210 x_5_6*x_6_8
      + 96.000410588039 x_5_6*x_6_9 + 47.997213870430 x_5_6*x_6_10
      + 47.999042226317 x_5_6*x_6_11 - 0.002030028422 x_5_6*x_6_12
      - 0.001053041428 x_5_6*x_6_13 + 96 x_5_6*x_7_8 + 96 x_5_6*x_7_9
      + 48 x_5_6*x_7_10 + 48 x_5_6*x_7_11 + 48 x_5_6*x_8_10 + 48 x_5_6*x_8_11
      + 48 x_5_6*x_9_10 + 48 x_5_6*x_9_11 + 72 x_5_7^2 + 96 x_5_7*x_5_8
      + 96 x_5_7*x_5_9 + 48 x_5_7*x_5_10 + 48 x_5_7*x_5_11 + 96 x_5_7*x_6_8
      + 96 x_5_7*x_6_9 + 48 x_5_7*x_6_10 + 48 x_5_7*x_6_11
      + 95.996752288783 x_5_7*x_7_8 + 95.992894030562 x_5_7*x_7_9
      + 47.996779423285 x_5_7*x_7_10 + 47.995854850580 x_5_7*x_7_11
      - 0.002554667600 x_5_7*x_7_12 - 0.002925959588 x_5_7*x_7_13
      + 48 x_5_7*x_8_10 + 48 x_5_7*x_8_11 + 48 x_5_7*x_9_10 + 48 x_5_7*x_9_11
      + 32 x_5_8^2 + 64 x_5_8*x_5_9 + 32 x_5_8*x_5_10 + 32 x_5_8*x_5_11
      + 64 x_5_8*x_6_8 + 64 x_5_8*x_6_9 + 32 x_5_8*x_6_10 + 32 x_5_8*x_6_11
      + 64 x_5_8*x_7_8 + 64 x_5_8*x_7_9 + 32 x_5_8*x_7_10 + 32 x_5_8*x_7_11
      + 31.996474414492 x_5_8*x_8_10 + 31.998970610240 x_5_8*x_8_11
      - 0.002540504524 x_5_8*x_8_12 - 0.001445688683 x_5_8*x_8_13
      + 32 x_5_8*x_9_10 + 32 x_5_8*x_9_11 + 32 x_5_9^2 + 32 x_5_9*x_5_10
      + 32 x_5_9*x_5_11 + 64 x_5_9*x_6_8 + 64 x_5_9*x_6_9 + 32 x_5_9*x_6_10
      + 32 x_5_9*x_6_11 + 64 x_5_9*x_7_8 + 64 x_5_9*x_7_9 + 32 x_5_9*x_7_10
      + 32 x_5_9*x_7_11 + 32 x_5_9*x_8_10 + 32 x_5_9*x_8_11
      + 31.997633598393 x_5_9*x_9_10 + 31.995854849621 x_5_9*x_9_11
      - 0.002323368355 x_5_9*x_9_12 - 0.002925960206 x_5_9*x_9_13 + 8 x_5_10^2
      + 16 x_5_10*x_5_11 + 32 x_5_10*x_6_8 + 32 x_5_10*x_6_9 + 16 x_5_10*x_6_10
      + 16 x_5_10*x_6_11 + 32 x_5_10*x_7_8 + 32 x_5_10*x_7_9 + 16 x_5_10*x_7_10
      + 16 x_5_10*x_7_11 + 16 x_5_10*x_8_10 + 16 x_5_10*x_8_11
      + 16 x_5_10*x_9_10 + 16 x_5_10*x_9_11 - 0.002737279269 x_5_10*x_10_12
      - 0.000965253013 x_5_10*x_10_13 + 8 x_5_11^2 + 32 x_5_11*x_6_8
      + 32 x_5_11*x_6_9 + 16 x_5_11*x_6_10 + 16 x_5_11*x_6_11 + 32 x_5_11*x_7_8
      + 32 x_5_11*x_7_9 + 16 x_5_11*x_7_10 + 16 x_5_11*x_7_11 + 16 x_5_11*x_8_10
      + 16 x_5_11*x_8_11 + 16 x_5_11*x_9_10 + 16 x_5_11*x_9_11
      - 0.001529205281 x_5_11*x_11_12 - 0.002925959741 x_5_11*x_11_13
      + 32 x_6_8^2 + 64 x_6_8*x_6_9 + 32 x_6_8*x_6_10 + 32 x_6_8*x_6_11
      + 64 x_6_8*x_7_8 + 64 x_6_8*x_7_9 + 32 x_6_8*x_7_10 + 32 x_6_8*x_7_11
      + 31.994127440016 x_6_8*x_8_10 + 31.996799120797 x_6_8*x_8_11
      - 0.003697520481 x_6_8*x_8_12 - 0.002858692756 x_6_8*x_8_13
      + 32 x_6_8*x_9_10 + 32 x_6_8*x_9_11 + 32 x_6_9^2 + 32 x_6_9*x_6_10
      + 32 x_6_9*x_6_11 + 64 x_6_9*x_7_8 + 64 x_6_9*x_7_9 + 32 x_6_9*x_7_10
      + 32 x_6_9*x_7_11 + 32 x_6_9*x_8_10 + 32 x_6_9*x_8_11
      + 32.000227377885 x_6_9*x_9_10 + 31.996585863420 x_6_9*x_9_11
      - 0.000700759108 x_6_9*x_9_12 - 0.002308089716 x_6_9*x_9_13 + 8 x_6_10^2
      + 16 x_6_10*x_6_11 + 32 x_6_10*x_7_8 + 32 x_6_10*x_7_9 + 16 x_6_10*x_7_10
      + 16 x_6_10*x_7_11 + 16 x_6_10*x_8_10 + 16 x_6_10*x_8_11
      + 16 x_6_10*x_9_10 + 16 x_6_10*x_9_11 - 0.003697520172 x_6_10*x_10_12
      - 0.001910427069 x_6_10*x_10_13 + 8 x_6_11^2 + 32 x_6_11*x_7_8
      + 32 x_6_11*x_7_9 + 16 x_6_11*x_7_10 + 16 x_6_11*x_7_11 + 16 x_6_11*x_8_10
      + 16 x_6_11*x_8_11 + 16 x_6_11*x_9_10 + 16 x_6_11*x_9_11
      - 0.000679599795 x_6_11*x_11_12 - 0.003120923183 x_6_11*x_11_13
      + 32 x_7_8^2 + 64 x_7_8*x_7_9 + 32 x_7_8*x_7_10 + 32 x_7_8*x_7_11
      + 31.996628342191 x_7_8*x_8_10 + 32.000245183009 x_7_8*x_8_11
      - 0.002272233698 x_7_8*x_8_12 - 0.000649231797 x_7_8*x_8_13
      + 32 x_7_8*x_9_10 + 32 x_7_8*x_9_11 + 32 x_7_9^2 + 32 x_7_9*x_7_10
      + 32 x_7_9*x_7_11 + 32 x_7_9*x_8_10 + 32 x_7_9*x_8_11
      + 31.996830334942 x_7_9*x_9_10 + 31.994148016590 x_7_9*x_9_11
      - 0.002880071400 x_7_9*x_9_12 - 0.003684536814 x_7_9*x_9_13 + 8 x_7_10^2
      + 16 x_7_10*x_7_11 + 16 x_7_10*x_8_10 + 16 x_7_10*x_8_11
      + 16 x_7_10*x_9_10 + 16 x_7_10*x_9_11 - 0.003149417653 x_7_10*x_10_12
      - 0.000721905241 x_7_10*x_10_13 + 8 x_7_11^2 + 16 x_7_11*x_8_10
      + 16 x_7_11*x_8_11 + 16 x_7_11*x_9_10 + 16 x_7_11*x_9_11
      - 0.001866316655 x_7_11*x_11_12 - 0.003684535899 x_7_11*x_11_13
      + 8 x_8_10^2 + 16 x_8_10*x_8_11 + 16 x_8_10*x_9_10 + 16 x_8_10*x_9_11
      - 0.004991655823 x_8_10*x_10_12 - 0.002442601005 x_8_10*x_10_13
      + 8 x_8_11^2 + 16 x_8_11*x_9_10 + 16 x_8_11*x_9_11
      + 0.000122922896 x_8_11*x_11_12 - 0.003249966804 x_8_11*x_11_13
      + 8 x_9_10^2 + 16 x_9_10*x_9_11 - 0.003240746918 x_9_10*x_10_12
      + 0.000111213829 x_9_10*x_10_13 + 8 x_9_11^2
      - 0.002394013674 x_9_11*x_11_12 - 0.004974101218 x_9_11*x_11_13 ]/2 + 196
Subject To
 c1: x_0_2 + x_0_3 + x_0_4 + x_0_5 + x_0_6 + x_0_7 = 1
 c2: x_1_2 + x_1_3 + x_1_4 + x_1_5 + x_1_6 + x_1_7 = 1
 c3: x_2_4 + x_2_5 + x_2_6 + x_2_7 + x_2_8 + x_2_9 = 1
 c4: x_3_4 + x_3_5 + x_3_6 + x_3_7 + x_3_8 + x_3_9 = 1
 c5: x_4_6 + x_4_7 + x_4_8 + x_4_9 + x_4_10 + x_4_11 = 1
 c6: x_5_6 + x_5_7 + x_5_8 + x_5_9 + x_5_10 + x_5_11 = 1
 c7: x_6_8 + x_6_9 + x_6_10 + x_6_11 + x_6_12 + x_6_13 = 1
 c8: x_7_8 + x_7_9 + x_7_10 + x_7_11 + x_7_12 + x_7_13 = 1
 c9: x_8_10 + x_8_11 + x_8_12 + x_8_13 = 1
 c10: x_9_10 + x_9_11 + x_9_12 + x_9_13 = 1
 c11: x_10_12 + x_10_13 = 1
 c12: x_11_12 + x_11_13 = 1
 c13: x_0_2 + x_1_2 = 1
 c14: x_0_3 + x_1_3 = 1
 c15: x_0_4 + x_1_4 + x_2_4 + x_3_4 = 1
 c16: x_0_5 + x_1_5 + x_2_5 + x_3_5 = 1
 c17: x_0_6 + x_1_6 + x_2_6 + x_3_6 + x_4_6 + x_5_6 = 1
 c18: x_0_7 + x_1_7 + x_2_7 + x_3_7 + x_4_7 + x_5_7 = 1
 c19: x_2_8 + x_3_8 + x_4_8 + x_5_8 + x_6_8 + x_7_8 = 1
 c20: x_2_9 + x_3_9 + x_4_9 + x_5_9 + x_6_9 + x_7_9 = 1
 c21: x_4_10 + x_5_10 + x_6_10 + x_7_10 + x_8_10 + x_9_10 = 1
 c22: x_4_11 + x_5_11 + x_6_11 + x_7_11 + x_8_11 + x_9_11 = 1
 c23: x_6_12 + x_7_12 + x_8_12 + x_9_12 + x_10_12 + x_11_12 = 1
 c24: x_6_13 + x_7_13 + x_8_13 + x_9_13 + x_10_13 + x_11_13 = 1
 c25: x_0_2 + x_1_2 - x_2_4 - x_2_5 - x_2_6 - x_2_7 - x_2_8 - x_2_9 = 0
 c26: x_0_3 + x_1_3 - x_3_4 - x_3_5 - x_3_6 - x_3_7 - x_3_8 - x_3_9 = 0
 c27: x_0_4 + x_1_4 + x_2_4 + x_3_4 - x_4_6 - x_4_7 - x_4_8 - x_4_9 - x_4_10
      - x_4_11 = 0
 c28: x_0_5 + x_1_5 + x_2_5 + x_3_5 - x_5_6 - x_5_7 - x_5_8 - x_5_9 - x_5_10
      - x_5_11 = 0
 c29: x_0_6 + x_1_6 + x_2_6 + x_3_6 + x_4_6 + x_5_6 - x_6_8 - x_6_9 - x_6_10
      - x_6_11 - x_6_12 - x_6_13 = 0
 c30: x_0_7 + x_1_7 + x_2_7 + x_3_7 + x_4_7 + x_5_7 - x_7_8 - x_7_9 - x_7_10
      - x_7_11 - x_7_12 - x_7_13 = 0
 c31: x_0_2 + x_1_2 - x_2_4 - x_2_5 - x_2_6 - x_2_7 - x_2_8 - x_2_9 = 0
 c32: x_0_3 + x_1_3 - x_3_4 - x_3_5 - x_3_6 - x_3_7 - x_3_8 - x_3_9 = 0
 c33: x_0_4 + x_1_4 + x_2_4 + x_3_4 - x_4_6 - x_4_7 - x_4_8 - x_4_9 - x_4_10
      - x_4_11 = 0
 c34: x_0_5 + x_1_5 + x_2_5 + x_3_5 - x_5_6 - x_5_7 - x_5_8 - x_5_9 - x_5_10
      - x_5_11 = 0
 c35: x_0_6 + x_1_6 + x_2_6 + x_3_6 + x_4_6 + x_5_6 - x_6_8 - x_6_9 - x_6_10
      - x_6_11 - x_6_12 - x_6_13 = 0
 c36: x_0_7 + x_1_7 + x_2_7 + x_3_7 + x_4_7 + x_5_7 - x_7_8 - x_7_9 - x_7_10
      - x_7_11 - x_7_12 - x_7_13 = 0
 c37: x_0_4 + x_1_4 + x_2_4 + x_3_4 - x_4_6 - x_4_7 - x_4_8 - x_4_9 - x_4_10
      - x_4_11 = 0
 c38: x_0_5 + x_1_5 + x_2_5 + x_3_5 - x_5_6 - x_5_7 - x_5_8 - x_5_9 - x_5_10
      - x_5_11 = 0
 c39: x_0_6 + x_1_6 + x_2_6 + x_3_6 + x_4_6 + x_5_6 - x_6_8 - x_6_9 - x_6_10
      - x_6_11 - x_6_12 - x_6_13 = 0
 c40: x_0_7 + x_1_7 + x_2_7 + x_3_7 + x_4_7 + x_5_7 - x_7_8 - x_7_9 - x_7_10
      - x_7_11 - x_7_12 - x_7_13 = 0
 c41: x_2_8 + x_3_8 + x_4_8 + x_5_8 + x_6_8 + x_7_8 - x_8_10 - x_8_11 - x_8_12
      - x_8_13 = 0
 c42: x_2_9 + x_3_9 + x_4_9 + x_5_9 + x_6_9 + x_7_9 - x_9_10 - x_9_11 - x_9_12
      - x_9_13 = 0
 c43: x_0_4 + x_1_4 + x_2_4 + x_3_4 - x_4_6 - x_4_7 - x_4_8 - x_4_9 - x_4_10
      - x_4_11 = 0
 c44: x_0_5 + x_1_5 + x_2_5 + x_3_5 - x_5_6 - x_5_7 - x_5_8 - x_5_9 - x_5_10
      - x_5_11 = 0
 c45: x_0_6 + x_1_6 + x_2_6 + x_3_6 + x_4_6 + x_5_6 - x_6_8 - x_6_9 - x_6_10
      - x_6_11 - x_6_12 - x_6_13 = 0
 c46: x_0_7 + x_1_7 + x_2_7 + x_3_7 + x_4_7 + x_5_7 - x_7_8 - x_7_9 - x_7_10
      - x_7_11 - x_7_12 - x_7_13 = 0
 c47: x_2_8 + x_3_8 + x_4_8 + x_5_8 + x_6_8 + x_7_8 - x_8_10 - x_8_11 - x_8_12
      - x_8_13 = 0
 c48: x_2_9 + x_3_9 + x_4_9 + x_5_9 + x_6_9 + x_7_9 - x_9_10 - x_9_11 - x_9_12
      - x_9_13 = 0
 c49: x_0_6 + x_1_6 + x_2_6 + x_3_6 + x_4_6 + x_5_6 - x_6_8 - x_6_9 - x_6_10
      - x_6_11 - x_6_12 - x_6_13 = 0
 c50: x_0_7 + x_1_7 + x_2_7 + x_3_7 + x_4_7 + x_5_7 - x_7_8 - x_7_9 - x_7_10
      - x_7_11 - x_7_12 - x_7_13 = 0
 c51: x_2_8 + x_3_8 + x_4_8 + x_5_8 + x_6_8 + x_7_8 - x_8_10 - x_8_11 - x_8_12
      - x_8_13 = 0
 c52: x_2_9 + x_3_9 + x_4_9 + x_5_9 + x_6_9 + x_7_9 - x_9_10 - x_9_11 - x_9_12
      - x_9_13 = 0
 c53: x_4_10 + x_5_10 + x_6_10 + x_7_10 + x_8_10 + x_9_10 - x_10_12 - x_10_13
       = 0
 c54: x_4_11 + x_5_11 + x_6_11 + x_7_11 + x_8_11 + x_9_11 - x_11_12 - x_11_13
       = 0
 c55: x_0_6 + x_1_6 + x_2_6 + x_3_6 + x_4_6 + x_5_6 - x_6_8 - x_6_9 - x_6_10
      - x_6_11 - x_6_12 - x_6_13 = 0
 c56: x_0_7 + x_1_7 + x_2_7 + x_3_7 + x_4_7 + x_5_7 - x_7_8 - x_7_9 - x_7_10
      - x_7_11 - x_7_12 - x_7_13 = 0
 c57: x_2_8 + x_3_8 + x_4_8 + x_5_8 + x_6_8 + x_7_8 - x_8_10 - x_8_11 - x_8_12
      - x_8_13 = 0
 c58: x_2_9 + x_3_9 + x_4_9 + x_5_9 + x_6_9 + x_7_9 - x_9_10 - x_9_11 - x_9_12
      - x_9_13 = 0
 c59: x_4_10 + x_5_10 + x_6_10 + x_7_10 + x_8_10 + x_9_10 - x_10_12 - x_10_13
       = 0
 c60: x_4_11 + x_5_11 + x_6_11 + x_7_11 + x_8_11 + x_9_11 - x_11_12 - x_11_13
       = 0
 c61: x_2_8 + x_3_8 + x_4_8 + x_5_8 + x_6_8 + x_7_8 - x_8_10 - x_8_11 - x_8_12
      - x_8_13 = 0
 c62: x_2_9 + x_3_9 + x_4_9 + x_5_9 + x_6_9 + x_7_9 - x_9_10 - x_9_11 - x_9_12
      - x_9_13 = 0
 c63: x_4_10 + x_5_10 + x_6_10 + x_7_10 + x_8_10 + x_9_10 - x_10_12 - x_10_13
       = 0
 c64: x_4_11 + x_5_11 + x_6_11 + x_7_11 + x_8_11 + x_9_11 - x_11_12 - x_11_13
       = 0
 c65: x_2_8 + x_3_8 + x_4_8 + x_5_8 + x_6_8 + x_7_8 - x_8_10 - x_8_11 - x_8_12
      - x_8_13 = 0
 c66: x_2_9 + x_3_9 + x_4_9 + x_5_9 + x_6_9 + x_7_9 - x_9_10 - x_9_11 - x_9_12
      - x_9_13 = 0
 c67: x_4_10 + x_5_10 + x_6_10 + x_7_10 + x_8_10 + x_9_10 - x_10_12 - x_10_13
       = 0
 c68: x_4_11 + x_5_11 + x_6_11 + x_7_11 + x_8_11 + x_9_11 - x_11_12 - x_11_13
       = 0
 c69: x_4_10 + x_5_10 + x_6_10 + x_7_10 + x_8_10 + x_9_10 - x_10_12 - x_10_13
       = 0
 c70: x_4_11 + x_5_11 + x_6_11 + x_7_11 + x_8_11 + x_9_11 - x_11_12 - x_11_13
       = 0
 c71: x_4_10 + x_5_10 + x_6_10 + x_7_10 + x_8_10 + x_9_10 - x_10_12 - x_10_13
       = 0
 c72: x_4_11 + x_5_11 + x_6_11 + x_7_11 + x_8_11 + x_9_11 - x_11_12 - x_11_13
       = 0

Bounds
 0 <= x_0_2 <= 1
 0 <= x_0_3 <= 1
 0 <= x_0_4 <= 1
 0 <= x_0_5 <= 1
 0 <= x_0_6 <= 1
 0 <= x_0_7 <= 1
 0 <= x_1_2 <= 1
 0 <= x_1_3 <= 1
 0 <= x_1_4 <= 1
 0 <= x_1_5 <= 1
 0 <= x_1_6 <= 1
 0 <= x_1_7 <= 1
 0 <= x_2_4 <= 1
 0 <= x_2_5 <= 1
 0 <= x_2_6 <= 1
 0 <= x_2_7 <= 1
 0 <= x_2_8 <= 1
 0 <= x_2_9 <= 1
 0 <= x_3_4 <= 1
 0 <= x_3_5 <= 1
 0 <= x_3_6 <= 1
 0 <= x_3_7 <= 1
 0 <= x_3_8 <= 1
 0 <= x_3_9 <= 1
 0 <= x_4_6 <= 1
 0 <= x_4_7 <= 1
 0 <= x_4_8 <= 1
 0 <= x_4_9 <= 1
 0 <= x_4_10 <= 1
 0 <= x_4_11 <= 1
 0 <= x_5_6 <= 1
 0 <= x_5_7 <= 1
 0 <= x_5_8 <= 1
 0 <= x_5_9 <= 1
 0 <= x_5_10 <= 1
 0 <= x_5_11 <= 1
 0 <= x_6_8 <= 1
 0 <= x_6_9 <= 1
 0 <= x_6_10 <= 1
 0 <= x_6_11 <= 1
 0 <= x_6_12 <= 1
 0 <= x_6_13 <= 1
 0 <= x_7_8 <= 1
 0 <= x_7_9 <= 1
 0 <= x_7_10 <= 1
 0 <= x_7_11 <= 1
 0 <= x_7_12 <= 1
 0 <= x_7_13 <= 1
 0 <= x_8_10 <= 1
 0 <= x_8_11 <= 1
 0 <= x_8_12 <= 1
 0 <= x_8_13 <= 1
 0 <= x_9_10 <= 1
 0 <= x_9_11 <= 1
 0 <= x_9_12 <= 1
 0 <= x_9_13 <= 1
 0 <= x_10_12 <= 1
 0 <= x_10_13 <= 1
 0 <= x_11_12 <= 1
 0 <= x_11_13 <= 1

Binaries
 x_0_2 x_0_3 x_0_4 x_0_5 x_0_6 x_0_7 x_1_2 x_1_3 x_1_4 x_1_5 x_1_6 x_1_7 x_2_4
 x_2_5 x_2_6 x_2_7 x_2_8 x_2_9 x_3_4 x_3_5 x_3_6 x_3_7 x_3_8 x_3_9 x_4_6 x_4_7
 x_4_8 x_4_9 x_4_10 x_4_11 x_5_6 x_5_7 x_5_8 x_5_9 x_5_10 x_5_11 x_6_8 x_6_9
 x_6_10 x_6_11 x_6_12 x_6_13 x_7_8 x_7_9 x_7_10 x_7_11 x_7_12 x_7_13 x_8_10
 x_8_11 x_8_12 x_8_13 x_9_10 x_9_11 x_9_12 x_9_13 x_10_12 x_10_13 x_11_12
 x_11_13
End
